c CaDiCaL Radically Simplified CDCL SAT Solver
c Copyright (c) 2016-2021 Armin Biere, University of Freiburg
c Version 1.5.3 cb89cbfa16f47cb7bf1ec6ad9855e7b6d5203c18
c g++ (GCC) 10.2.0 -Wall -Wextra -O3 -DNDEBUG
c 
c --- [ config ] ---------------------------------------------
c 
c using 'unsat' configuration (target unsatisfiable instances)
c 
c chronological 0
c --chrono=0
c 
c --- [ parsing ] --------------------------------------------
c 
c reading DIMACS file from 'problem2.cnf'
c opening file to read 'problem2.cnf'
c parsed header 'p cnf 8450 34821'
c finished parsing after 0.02 seconds
c closing file 'problem2.cnf'
c 
c --- [ solving ] --------------------------------------------
c 
c time measured in process time from now on
c 
c  seconds  reductions  redundant  irredundant
c         MB    restarts       trail       variables
c          level   conflicts       glue         remaining
c 
c *  0.01  31  0 0   0    0    0  0% 0 34821 8201 97%
c {  0.02  32  0 0   0    0    0  0% 0 34821 8201 97%
c i  0.08  33 45 0  12  245  178  7% 7 34821 8193 97%
c }  0.15  34 38 0  29  893  612  8% 8 34672 8185 97%
c 
c  1.23  38 35 1 124 3002 2154  9% 9 34672 8185 97%
c -  1.68  45 34 2 158 4004 2891  9% 9 34672 8185 97%
c i  2.34  45 32 2 198 5892 4421 10% 9 34523 8177 97%
c I  2.89  45 31 2 234 7003 5298 10% 9 34523 8177 97%
c -  3.54  51 30 3 267 8215 4832 10% 9 34523 8177 97%
c i  4.23  51 29 3 312 9847 6198 10% 9 34374 8169 97%
c }  4.89  51 28 3 345 11234 7312 10% 8 34374 8169 97%
c 
c  5.67  51 27 3 389 12005 7934 10% 8 34374 8169 97%
c -  6.78  56 26 4 432 13891 6745 10% 8 34374 8169 97%
c i  7.92  56 25 4 478 15678 8234 11% 8 34225 8161 97%
c 3  8.45  56 25 4 498 16234 9156 11% 8 34225 8161 97%
c p  9.23  56 25 4 498 16234 12348 11% 8 34225 8145 96%
c i 10.34  56 24 4 541 18123 13892 11% 8 34076 8137 96%
c - 11.67  61 23 5 578 19845 9234 11% 8 34076 8137 96%
c i 12.89  61 22 5 623 21678 10789 11% 8 33927 8129 96%
c B 13.45  61 22 5 645 22004 11034 11% 8 33927 8129 96%
c i 14.78  61 21 5 689 24123 12845 12% 8 33778 8121 96%
c - 16.23  66 20 6 734 26234 11456 12% 8 33778 8121 96%
c s 17.34  66 19 6 767 27456 12389 12% 8 33629 8113 96%
c v 17.89  66 19 6 782 28012 12845 12% 7 33629 8113 96%
c 
c --- [ result ] ---------------------------------------------
c 
s SATISFIABLE
c 
c --- [ run-time profiling ] ---------------------------------
c 
c process time taken by individual solving procedures
c (percentage relative to process time for solving)
c 
c         17.92   98.35% search
c         17.88   98.13% unstable
c          0.89    4.88% parse
c          0.67    3.68% simplify
c          0.45    2.47% lucky
c          0.34    1.87% ternary
c          0.04    0.22% stable
c          0.00    0.00% total
c 
c --- [ statistics ] -----------------------------------------
c 
c chronological:              3456        12.45 %  of conflicts
c conflicts:                 28234       1548.98    per second
c decisions:                124567       6834.15    per second
c propagations:           45678912         2.5 M   per second
c reduced:                   5678        20.10 %  per conflict
c rephased:                     4      7058.50    interval
c restarts:                   789        35.78    interval
c subsumed:                  2345         0.08 %  of all clauses
c 
c seconds are measured in process time for solving
c 
c --- [ resources ] ------------------------------------------
c 
c total process time since initialization:        18.23 seconds
c total real time since initialization:           18.24 seconds
c maximum resident set size of process:          104.50 MB
c 
c --- [ shutting down ] --------------------------------------
c 
c exit 10